decision_x1=[0,7];
decision_x2=[0,7];
decision_x3=[0,7];
decision_x4=[0,7];
decision_x5=[0,7];
decision_x6=[0,7];
decision_x7=[0,7];
decision_x8=[0,7];
decision_x9=[0,7];
decision_x10=[0,7];
decision_x11=[0,7];
decision_x12=[0,7];
decision_x13=[0,7];
decision_x14=[0,7];
decision_x15=[0,7];
decision_x16=[0,7];
decision_x17=[0,7];
decision_x18=[0,7];
decision_x19=[0,7];
decision_x20=[0,7];
random_y1=[0,7];
random_y2=[0,7];
random_y3=[0,7];
random_y4=[0,7];
random_y5=[0,7];
random_y6=[0,7];
random_y7=[0,7];
random_y8=[0,7];
random_y9=[0,7];
constraint_x2_x1=[
0,0,2.8|
0,1,5.9|
0,2,1.1|
0,3,5|
0,4,2.1|
0,5,7.5|
0,6,6.6|
0,7,1.9|
1,0,4.8|
1,1,3.5|
1,2,6.8|
1,3,3.2|
1,4,6.2|
1,5,3.2|
1,6,3.2|
1,7,5.9|
2,0,5|
2,1,2.8|
2,2,2|
2,3,6.9|
2,4,6|
2,5,1.5|
2,6,3.4|
2,7,0.47|
3,0,6.9|
3,1,3.3|
3,2,1.6|
3,3,8.9|
3,4,9.1|
3,5,9.9|
3,6,4.5|
3,7,2.9|
4,0,1.1|
4,1,9.1|
4,2,7.8|
4,3,9.6|
4,4,2.9|
4,5,1.9|
4,6,10|
4,7,7.2|
5,0,7|
5,1,5.5|
5,2,8.7|
5,3,1.7|
5,4,8.8|
5,5,3.7|
5,6,8.3|
5,7,0.25|
6,0,5.2|
6,1,7.9|
6,2,6.4|
6,3,8.5|
6,4,0.65|
6,5,4.3|
6,6,0.77|
6,7,0.83|
7,0,0.3|
7,1,7.3|
7,2,5.2|
7,3,1.6|
7,4,7.5|
7,5,9.5|
7,6,2.6|
7,7,2.1|
];
constraint_x3_x2=[
0,0,7.6|
0,1,5.4|
0,2,3.7|
0,3,1.9|
0,4,2.1|
0,5,9.2|
0,6,5.1|
0,7,6.5|
1,0,3|
1,1,5.4|
1,2,6.3|
1,3,5.2|
1,4,6.6|
1,5,0.75|
1,6,1.8|
1,7,1.8|
2,0,5.2|
2,1,9.8|
2,2,3.6|
2,3,8.5|
2,4,3.8|
2,5,7.2|
2,6,3.1|
2,7,4|
3,0,0.35|
3,1,5.9|
3,2,4.1|
3,3,9.3|
3,4,9.3|
3,5,6.6|
3,6,9.4|
3,7,4.8|
4,0,6.6|
4,1,1.2|
4,2,8.1|
4,3,8.8|
4,4,4.5|
4,5,6|
4,6,0.62|
4,7,7.5|
5,0,2.6|
5,1,7.9|
5,2,1.2|
5,3,3.8|
5,4,8.9|
5,5,0.91|
5,6,8.6|
5,7,6.5|
6,0,7.4|
6,1,5.7|
6,2,6.7|
6,3,4.2|
6,4,0.51|
6,5,1.1|
6,6,0.8|
6,7,1.3|
7,0,8.8|
7,1,1.5|
7,2,6.8|
7,3,7.5|
7,4,9.7|
7,5,4.9|
7,6,9.8|
7,7,4.5|
];
constraint_x4_x3=[
0,0,5.5|
0,1,9.5|
0,2,3|
0,3,0.57|
0,4,3.8|
0,5,0.53|
0,6,5.3|
0,7,2.4|
1,0,9.9|
1,1,8.6|
1,2,1.7|
1,3,9|
1,4,0.18|
1,5,2|
1,6,5.7|
1,7,2|
2,0,6.9|
2,1,3.3|
2,2,2.4|
2,3,6.8|
2,4,3.6|
2,5,0.54|
2,6,1.7|
2,7,1|
3,0,2.3|
3,1,2.5|
3,2,3.4|
3,3,5.1|
3,4,3.9|
3,5,0.91|
3,6,6.4|
3,7,0.43|
4,0,1.3|
4,1,3.3|
4,2,7.1|
4,3,2.7|
4,4,8.2|
4,5,0.51|
4,6,5.3|
4,7,7.1|
5,0,3.9|
5,1,10|
5,2,0.48|
5,3,9.2|
5,4,2.6|
5,5,9.7|
5,6,8.9|
5,7,8.6|
6,0,2.6|
6,1,7.7|
6,2,3.5|
6,3,5.6|
6,4,3.7|
6,5,9.9|
6,6,7.3|
6,7,0.56|
7,0,7.4|
7,1,2.4|
7,2,9.9|
7,3,4|
7,4,9.3|
7,5,6.6|
7,6,8|
7,7,0.052|
];
constraint_x5_x1=[
0,0,8.8|
0,1,4.5|
0,2,3.3|
0,3,1.7|
0,4,0.28|
0,5,1.4|
0,6,4.4|
0,7,5.7|
1,0,5|
1,1,8|
1,2,8.2|
1,3,8.7|
1,4,5.7|
1,5,2.3|
1,6,7.3|
1,7,1.8|
2,0,1.6|
2,1,9.2|
2,2,8.1|
2,3,6.9|
2,4,6.6|
2,5,7.7|
2,6,5.7|
2,7,4|
3,0,3.1|
3,1,2|
3,2,6.9|
3,3,2.4|
3,4,2.4|
3,5,8.1|
3,6,9.7|
3,7,6.8|
4,0,2.4|
4,1,2.8|
4,2,5.5|
4,3,0.71|
4,4,0.034|
4,5,8.4|
4,6,4.8|
4,7,2.9|
5,0,2.9|
5,1,5.3|
5,2,1.4|
5,3,4.5|
5,4,8.6|
5,5,9.4|
5,6,5.5|
5,7,8.5|
6,0,5.9|
6,1,4.5|
6,2,5.7|
6,3,7.9|
6,4,3.9|
6,5,7.4|
6,6,5.5|
6,7,2.6|
7,0,1.9|
7,1,7.5|
7,2,1.4|
7,3,7.4|
7,4,0.31|
7,5,9.5|
7,6,8.8|
7,7,2.1|
];
constraint_x6_x2=[
0,0,1.8|
0,1,0.76|
0,2,5.6|
0,3,4.6|
0,4,8.1|
0,5,2.3|
0,6,7.3|
0,7,5.7|
1,0,9.6|
1,1,9.2|
1,2,2.1|
1,3,0.24|
1,4,0.26|
1,5,1.6|
1,6,8.1|
1,7,7.9|
2,0,5.1|
2,1,1.6|
2,2,4.3|
2,3,4.2|
2,4,4.9|
2,5,3.9|
2,6,5|
2,7,8.5|
3,0,1.3|
3,1,7.6|
3,2,9.3|
3,3,8.6|
3,4,2.7|
3,5,1.7|
3,6,5.6|
3,7,2.1|
4,0,8.7|
4,1,0.036|
4,2,0.24|
4,3,2|
4,4,8.8|
4,5,9.6|
4,6,0.99|
4,7,1.3|
5,0,0.99|
5,1,7.1|
5,2,6.8|
5,3,6.2|
5,4,7.4|
5,5,3.9|
5,6,7.8|
5,7,9.7|
6,0,2.6|
6,1,4.8|
6,2,0.91|
6,3,2.7|
6,4,9.5|
6,5,8.8|
6,6,0.71|
6,7,0.79|
7,0,9.9|
7,1,1.6|
7,2,2.5|
7,3,2.7|
7,4,6.4|
7,5,2.7|
7,6,3.1|
7,7,8.4|
];
constraint_x7_x3=[
0,0,7.1|
0,1,1.3|
0,2,7.9|
0,3,7.7|
0,4,5.6|
0,5,1.7|
0,6,3.9|
0,7,0.45|
1,0,0.73|
1,1,2.1|
1,2,4.6|
1,3,0.3|
1,4,7.3|
1,5,6.7|
1,6,2.8|
1,7,8.4|
2,0,5.5|
2,1,3.3|
2,2,6.4|
2,3,0.6|
2,4,4.6|
2,5,1.5|
2,6,4.9|
2,7,9.4|
3,0,8.7|
3,1,1.1|
3,2,7.1|
3,3,1.2|
3,4,8.3|
3,5,4.3|
3,6,8.8|
3,7,3.6|
4,0,6.7|
4,1,3.2|
4,2,0.024|
4,3,4.9|
4,4,3.9|
4,5,6.8|
4,6,6.7|
4,7,7.9|
5,0,9.3|
5,1,2|
5,2,5.9|
5,3,4.3|
5,4,3.1|
5,5,0.047|
5,6,4.4|
5,7,7.3|
6,0,2.1|
6,1,5.2|
6,2,2.1|
6,3,9.3|
6,4,5.8|
6,5,0.27|
6,6,4.2|
6,7,2|
7,0,7.8|
7,1,8.3|
7,2,2.5|
7,3,8.1|
7,4,2.8|
7,5,5.3|
7,6,9.6|
7,7,4.5|
];
constraint_x8_x4=[
0,0,0.12|
0,1,4.5|
0,2,9.8|
0,3,4.3|
0,4,3.4|
0,5,6.7|
0,6,7.4|
0,7,5.2|
1,0,4.4|
1,1,0.93|
1,2,1.4|
1,3,3.5|
1,4,1.1|
1,5,3.6|
1,6,4.5|
1,7,6.4|
2,0,0.62|
2,1,8.1|
2,2,9.2|
2,3,8.1|
2,4,3.5|
2,5,2.6|
2,6,5.7|
2,7,6.4|
3,0,4.1|
3,1,4.6|
3,2,7.8|
3,3,6.4|
3,4,3.3|
3,5,6.2|
3,6,6.4|
3,7,0.82|
4,0,5|
4,1,1.5|
4,2,4|
4,3,6.3|
4,4,8.3|
4,5,5|
4,6,1.9|
4,7,9.4|
5,0,4.4|
5,1,6.8|
5,2,6.4|
5,3,7.3|
5,4,6.4|
5,5,8.2|
5,6,6|
5,7,4.8|
6,0,8|
6,1,9.6|
6,2,6.4|
6,3,7.3|
6,4,5.6|
6,5,9.3|
6,6,9.5|
6,7,2.2|
7,0,8.6|
7,1,9.6|
7,2,3.2|
7,3,9.2|
7,4,0.5|
7,5,3.4|
7,6,8.2|
7,7,0.6|
];
constraint_x9_x5=[
0,0,2.1|
0,1,5.2|
0,2,7|
0,3,5.8|
0,4,7.2|
0,5,2.4|
0,6,6.3|
0,7,6.6|
1,0,8.2|
1,1,4|
1,2,9.6|
1,3,6.4|
1,4,1.2|
1,5,5.2|
1,6,6.1|
1,7,6.7|
2,0,2.5|
2,1,6.7|
2,2,1.5|
2,3,7.6|
2,4,2.4|
2,5,9.3|
2,6,7|
2,7,6.6|
3,0,8.8|
3,1,9.1|
3,2,7.4|
3,3,0.42|
3,4,5.1|
3,5,6.5|
3,6,6.5|
3,7,6.9|
4,0,2.7|
4,1,4.6|
4,2,8.9|
4,3,0.73|
4,4,1.6|
4,5,3.3|
4,6,8.4|
4,7,8|
5,0,3.2|
5,1,5.6|
5,2,6.4|
5,3,4.5|
5,4,7.7|
5,5,1.6|
5,6,9.3|
5,7,3.7|
6,0,3.1|
6,1,1.9|
6,2,7.4|
6,3,8.2|
6,4,5.7|
6,5,9|
6,6,3.7|
6,7,5.4|
7,0,2.1|
7,1,0.2|
7,2,8|
7,3,4.6|
7,4,4.5|
7,5,8.9|
7,6,3.5|
7,7,7.1|
];
constraint_x10_x6=[
0,0,8.2|
0,1,4.8|
0,2,3.6|
0,3,7.7|
0,4,3.1|
0,5,4.3|
0,6,7.6|
0,7,5.3|
1,0,3|
1,1,3.5|
1,2,5.8|
1,3,4.7|
1,4,6.9|
1,5,4.1|
1,6,0.96|
1,7,5.1|
2,0,7.3|
2,1,8.7|
2,2,2.3|
2,3,0.89|
2,4,6.2|
2,5,7|
2,6,6.6|
2,7,5.1|
3,0,9.5|
3,1,2.8|
3,2,2.5|
3,3,2.8|
3,4,5.3|
3,5,5.3|
3,6,6|
3,7,0.11|
4,0,9.6|
4,1,7.7|
4,2,4.7|
4,3,7.2|
4,4,4.1|
4,5,7.8|
4,6,5.9|
4,7,4.1|
5,0,9.6|
5,1,3.4|
5,2,2.2|
5,3,9.9|
5,4,6.5|
5,5,6.2|
5,6,7.2|
5,7,2.2|
6,0,3.1|
6,1,9.9|
6,2,3.1|
6,3,7.9|
6,4,5.1|
6,5,8.7|
6,6,6.7|
6,7,5.7|
7,0,5.8|
7,1,4|
7,2,2.5|
7,3,1.5|
7,4,7.7|
7,5,1.6|
7,6,4.6|
7,7,4.9|
];
constraint_x11_x7=[
0,0,5|
0,1,5.3|
0,2,1.4|
0,3,2.4|
0,4,6.6|
0,5,9.1|
0,6,4|
0,7,1.3|
1,0,3.5|
1,1,5.8|
1,2,1.4|
1,3,8.2|
1,4,6.5|
1,5,4.2|
1,6,9.2|
1,7,8.3|
2,0,3.6|
2,1,5.6|
2,2,2.7|
2,3,3.7|
2,4,1.6|
2,5,2.3|
2,6,7.6|
2,7,7.1|
3,0,8.4|
3,1,9.7|
3,2,7.2|
3,3,7.5|
3,4,6.5|
3,5,5.2|
3,6,5|
3,7,0.84|
4,0,5|
4,1,8.4|
4,2,5.6|
4,3,0.62|
4,4,8.4|
4,5,4|
4,6,0.47|
4,7,1.8|
5,0,5.6|
5,1,4.3|
5,2,4.5|
5,3,1.4|
5,4,3.4|
5,5,0.55|
5,6,0.57|
5,7,1.2|
6,0,6|
6,1,0.98|
6,2,6.9|
6,3,6.2|
6,4,9.1|
6,5,2|
6,6,0.058|
6,7,0.46|
7,0,2.7|
7,1,3.7|
7,2,8.2|
7,3,3.6|
7,4,6.6|
7,5,9.2|
7,6,4.7|
7,7,2.1|
];
constraint_x12_x8=[
0,0,4.7|
0,1,9.2|
0,2,2.8|
0,3,0.57|
0,4,3.2|
0,5,4.2|
0,6,8.5|
0,7,5.8|
1,0,8.3|
1,1,6.7|
1,2,8.3|
1,3,7.7|
1,4,7.9|
1,5,2.7|
1,6,1.7|
1,7,8.6|
2,0,2.2|
2,1,4|
2,2,2.3|
2,3,4.2|
2,4,4.6|
2,5,6.2|
2,6,2.5|
2,7,9.3|
3,0,9.9|
3,1,9|
3,2,6.3|
3,3,6|
3,4,4.4|
3,5,0.46|
3,6,8.5|
3,7,2.8|
4,0,1|
4,1,3.1|
4,2,2.7|
4,3,1.5|
4,4,8.8|
4,5,1.9|
4,6,7.8|
4,7,3.3|
5,0,2.7|
5,1,0.33|
5,2,6.2|
5,3,5.2|
5,4,2.9|
5,5,5.6|
5,6,1.9|
5,7,6.7|
6,0,9.3|
6,1,8.6|
6,2,6.7|
6,3,1.4|
6,4,0.68|
6,5,2.7|
6,6,6.2|
6,7,0.076|
7,0,6.7|
7,1,7.2|
7,2,4.2|
7,3,7.6|
7,4,7.6|
7,5,9.1|
7,6,8.3|
7,7,5.9|
];
constraint_x13_x9=[
0,0,9|
0,1,1.5|
0,2,9.5|
0,3,9.3|
0,4,0.083|
0,5,7.1|
0,6,9|
0,7,1.8|
1,0,4.8|
1,1,1.7|
1,2,5.5|
1,3,7.3|
1,4,3|
1,5,4.5|
1,6,4.7|
1,7,5.3|
2,0,4.4|
2,1,0.55|
2,2,8.1|
2,3,2.2|
2,4,3.3|
2,5,0.0028|
2,6,3.5|
2,7,6.7|
3,0,2.7|
3,1,0.83|
3,2,1.8|
3,3,6.5|
3,4,7.5|
3,5,0.78|
3,6,6.6|
3,7,9|
4,0,3.4|
4,1,4.3|
4,2,1.8|
4,3,6.1|
4,4,3.9|
4,5,9.1|
4,6,1.5|
4,7,7.6|
5,0,8.6|
5,1,0.6|
5,2,6.1|
5,3,7|
5,4,8.9|
5,5,1.7|
5,6,9|
5,7,5|
6,0,7.5|
6,1,5.9|
6,2,5.6|
6,3,0.31|
6,4,5.4|
6,5,7.8|
6,6,0.33|
6,7,1.2|
7,0,2|
7,1,9.1|
7,2,3.4|
7,3,8.8|
7,4,0.88|
7,5,2.2|
7,6,3.5|
7,7,4.2|
];
constraint_x14_x10=[
0,0,1.7|
0,1,4.4|
0,2,9.3|
0,3,7.8|
0,4,8.1|
0,5,6.2|
0,6,6.4|
0,7,0.12|
1,0,9.9|
1,1,2.3|
1,2,5.9|
1,3,7.6|
1,4,9.6|
1,5,8.2|
1,6,2.6|
1,7,3.9|
2,0,7.2|
2,1,9.8|
2,2,3.5|
2,3,1.4|
2,4,1.2|
2,5,0.097|
2,6,9.7|
2,7,2|
3,0,3.2|
3,1,1.7|
3,2,4.9|
3,3,2.9|
3,4,3.8|
3,5,1.5|
3,6,6.1|
3,7,7.2|
4,0,9.8|
4,1,4.7|
4,2,1.3|
4,3,0.72|
4,4,3.2|
4,5,9.5|
4,6,7.9|
4,7,4.7|
5,0,3.5|
5,1,2.3|
5,2,6|
5,3,7.9|
5,4,4.5|
5,5,9|
5,6,2.8|
5,7,8.3|
6,0,8.7|
6,1,9.4|
6,2,9.2|
6,3,0.91|
6,4,9.5|
6,5,1.8|
6,6,2.8|
6,7,0.63|
7,0,3|
7,1,1.7|
7,2,5.9|
7,3,6.5|
7,4,8|
7,5,4.8|
7,6,5.8|
7,7,5.8|
];
constraint_x15_x11=[
0,0,1.9|
0,1,2.7|
0,2,6.6|
0,3,1.8|
0,4,4.7|
0,5,0.096|
0,6,5.1|
0,7,2|
1,0,2.7|
1,1,8.9|
1,2,4.7|
1,3,6.9|
1,4,2.5|
1,5,6.1|
1,6,0.085|
1,7,5.2|
2,0,0.63|
2,1,1|
2,2,2.8|
2,3,7.6|
2,4,7.3|
2,5,9.5|
2,6,7.1|
2,7,9.4|
3,0,5.4|
3,1,8.4|
3,2,5|
3,3,2.2|
3,4,7.5|
3,5,4.6|
3,6,5.5|
3,7,5.4|
4,0,2.1|
4,1,9.6|
4,2,8.3|
4,3,2.2|
4,4,3.8|
4,5,9.4|
4,6,9.7|
4,7,4.2|
5,0,4.4|
5,1,5.9|
5,2,5.2|
5,3,9.8|
5,4,8|
5,5,7.4|
5,6,2|
5,7,6.7|
6,0,5.9|
6,1,8.6|
6,2,2.4|
6,3,5.4|
6,4,3.7|
6,5,3.3|
6,6,8|
6,7,3.6|
7,0,0.74|
7,1,5.7|
7,2,7.2|
7,3,2.6|
7,4,6|
7,5,0.93|
7,6,3.4|
7,7,1.6|
];
constraint_x16_x12=[
0,0,6.9|
0,1,2.9|
0,2,5.1|
0,3,4|
0,4,6.1|
0,5,8.1|
0,6,0.37|
0,7,5.5|
1,0,3.3|
1,1,7.7|
1,2,8.1|
1,3,4.5|
1,4,7.9|
1,5,1.6|
1,6,4.3|
1,7,6.8|
2,0,0.57|
2,1,6.4|
2,2,2.9|
2,3,2.7|
2,4,7.5|
2,5,8.4|
2,6,3.2|
2,7,4.3|
3,0,2.5|
3,1,7.7|
3,2,7.6|
3,3,1.6|
3,4,9.2|
3,5,2.7|
3,6,6.2|
3,7,6.5|
4,0,6.4|
4,1,8.3|
4,2,1.6|
4,3,4.7|
4,4,8.5|
4,5,0.1|
4,6,9.3|
4,7,5|
5,0,1.9|
5,1,7.3|
5,2,4.7|
5,3,0.41|
5,4,7.7|
5,5,2.5|
5,6,8.7|
5,7,7.1|
6,0,1.2|
6,1,2.5|
6,2,9.2|
6,3,9.3|
6,4,4.2|
6,5,1.2|
6,6,1|
6,7,5.7|
7,0,1.3|
7,1,0.61|
7,2,5.4|
7,3,2.5|
7,4,5.7|
7,5,3|
7,6,6.7|
7,7,1.5|
];
constraint_x17_x13=[
0,0,4.5|
0,1,6.4|
0,2,5.1|
0,3,7.9|
0,4,3.2|
0,5,8.4|
0,6,3.4|
0,7,9.9|
1,0,6.1|
1,1,8.4|
1,2,6.6|
1,3,5.9|
1,4,7.4|
1,5,7.1|
1,6,5.7|
1,7,6.9|
2,0,8.7|
2,1,6.2|
2,2,8.2|
2,3,8.7|
2,4,4.8|
2,5,5.7|
2,6,6|
2,7,4|
3,0,6.3|
3,1,8.9|
3,2,5.9|
3,3,8.9|
3,4,2.1|
3,5,8.2|
3,6,7|
3,7,5.4|
4,0,9.3|
4,1,3|
4,2,1.6|
4,3,4.5|
4,4,5.1|
4,5,5.3|
4,6,1.5|
4,7,9.9|
5,0,2.6|
5,1,2.9|
5,2,2.8|
5,3,6.1|
5,4,0.42|
5,5,2.8|
5,6,5.3|
5,7,1.2|
6,0,7.6|
6,1,9.9|
6,2,0.74|
6,3,2.3|
6,4,0.0038|
6,5,3.4|
6,6,1.5|
6,7,5.2|
7,0,4.3|
7,1,0.58|
7,2,1.7|
7,3,2.8|
7,4,1.6|
7,5,9.9|
7,6,1.8|
7,7,9.1|
];
constraint_x18_x14=[
0,0,4.3|
0,1,4.3|
0,2,2.2|
0,3,1|
0,4,9.2|
0,5,7.9|
0,6,9.1|
0,7,6.6|
1,0,0.34|
1,1,2.6|
1,2,1.6|
1,3,1.3|
1,4,0.6|
1,5,3.8|
1,6,1.6|
1,7,6.3|
2,0,6|
2,1,9.2|
2,2,6.7|
2,3,0.45|
2,4,5.6|
2,5,9.2|
2,6,6.4|
2,7,9.2|
3,0,2|
3,1,2|
3,2,3.1|
3,3,1.9|
3,4,2.4|
3,5,5.6|
3,6,3.5|
3,7,3|
4,0,4.6|
4,1,7|
4,2,6|
4,3,4.6|
4,4,6.6|
4,5,0.33|
4,6,5.5|
4,7,5.9|
5,0,4.8|
5,1,4.9|
5,2,7.5|
5,3,9.4|
5,4,8.6|
5,5,7.4|
5,6,9.6|
5,7,2.5|
6,0,2.3|
6,1,2.6|
6,2,6.3|
6,3,1.3|
6,4,3.1|
6,5,5.2|
6,6,0.6|
6,7,3.8|
7,0,4.2|
7,1,2.7|
7,2,8.8|
7,3,2.4|
7,4,5.1|
7,5,7.5|
7,6,6|
7,7,0.069|
];
constraint_x19_x15=[
0,0,5.3|
0,1,3.4|
0,2,8.9|
0,3,3|
0,4,3.9|
0,5,2|
0,6,9.2|
0,7,5.3|
1,0,7.6|
1,1,3.7|
1,2,3.3|
1,3,5.5|
1,4,0.6|
1,5,1.1|
1,6,6.8|
1,7,2.6|
2,0,1.7|
2,1,6.7|
2,2,7.4|
2,3,0.8|
2,4,2.8|
2,5,1.9|
2,6,6|
2,7,0.29|
3,0,7.2|
3,1,0.46|
3,2,0.75|
3,3,1.2|
3,4,0.18|
3,5,6.5|
3,6,1.8|
3,7,2.4|
4,0,6.4|
4,1,0.11|
4,2,6.8|
4,3,4.9|
4,4,10|
4,5,8.5|
4,6,9.1|
4,7,2.8|
5,0,0.7|
5,1,9.3|
5,2,2|
5,3,2.4|
5,4,4.4|
5,5,5.6|
5,6,2.2|
5,7,1.3|
6,0,6|
6,1,1.5|
6,2,7.1|
6,3,6.8|
6,4,3.5|
6,5,6.6|
6,6,2.1|
6,7,1.3|
7,0,3.5|
7,1,5.3|
7,2,5.3|
7,3,8|
7,4,9.8|
7,5,2.3|
7,6,8.4|
7,7,1.3|
];
constraint_x20_x16=[
0,0,4.2|
0,1,1.7|
0,2,7.6|
0,3,9.5|
0,4,8|
0,5,5.9|
0,6,2.9|
0,7,7|
1,0,1.4|
1,1,1.2|
1,2,3|
1,3,2.1|
1,4,5.2|
1,5,3.7|
1,6,4|
1,7,5.6|
2,0,2.1|
2,1,9.6|
2,2,6.8|
2,3,7.3|
2,4,8.4|
2,5,8.9|
2,6,4.8|
2,7,6.9|
3,0,1.5|
3,1,9.3|
3,2,2.6|
3,3,1|
3,4,2.7|
3,5,7.9|
3,6,4.8|
3,7,8.1|
4,0,7.6|
4,1,1.2|
4,2,9.1|
4,3,3.6|
4,4,1.5|
4,5,8.4|
4,6,4.1|
4,7,8.1|
5,0,0.074|
5,1,0.41|
5,2,4.6|
5,3,2.9|
5,4,8.4|
5,5,1.8|
5,6,2.6|
5,7,4.2|
6,0,2.4|
6,1,6.9|
6,2,0.28|
6,3,0.72|
6,4,5.7|
6,5,1.2|
6,6,2.2|
6,7,5.2|
7,0,3.1|
7,1,9.3|
7,2,1|
7,3,2.7|
7,4,1.2|
7,5,6.7|
7,6,5.5|
7,7,9.4|
];
constraint_x1_y1=[
0,0,7.9|
0,1,1.9|
0,2,4.7|
0,3,9.5|
0,4,9.9|
0,5,6.9|
0,6,5.8|
0,7,3.1|
1,0,0.64|
1,1,1.8|
1,2,9.3|
1,3,0.31|
1,4,6.1|
1,5,6|
1,6,9.1|
1,7,7.4|
2,0,6.8|
2,1,9.6|
2,2,6.8|
2,3,0.98|
2,4,3.4|
2,5,5.6|
2,6,8.5|
2,7,3.1|
3,0,8.3|
3,1,5.5|
3,2,2|
3,3,9.1|
3,4,3.1|
3,5,0.6|
3,6,0.49|
3,7,7.5|
4,0,0.029|
4,1,7.2|
4,2,1|
4,3,4.6|
4,4,0.18|
4,5,9.7|
4,6,6.6|
4,7,0.0068|
5,0,9.2|
5,1,7.3|
5,2,7.6|
5,3,1.7|
5,4,2.2|
5,5,8.6|
5,6,2.1|
5,7,6.9|
6,0,4.4|
6,1,4.6|
6,2,5.7|
6,3,10|
6,4,3|
6,5,0.77|
6,6,1.5|
6,7,9.2|
7,0,4.7|
7,1,8.9|
7,2,2.8|
7,3,6|
7,4,5.6|
7,5,2.8|
7,6,6.5|
7,7,2.9|
];
constraint_x2_y2=[
0,0,4.7|
0,1,6.9|
0,2,2.5|
0,3,9.9|
0,4,8.9|
0,5,3.6|
0,6,1.8|
0,7,6|
1,0,5|
1,1,7.3|
1,2,7.8|
1,3,5.6|
1,4,5.7|
1,5,3.9|
1,6,5.6|
1,7,2.8|
2,0,3.8|
2,1,3|
2,2,7.5|
2,3,6.2|
2,4,7.3|
2,5,9|
2,6,2.6|
2,7,5|
3,0,8.2|
3,1,0.72|
3,2,8.8|
3,3,1.6|
3,4,6|
3,5,4.9|
3,6,3.8|
3,7,9.9|
4,0,0.37|
4,1,4.1|
4,2,2.6|
4,3,0.85|
4,4,1.4|
4,5,5.8|
4,6,5.2|
4,7,9.3|
5,0,8.9|
5,1,2.6|
5,2,9.7|
5,3,6.9|
5,4,6.3|
5,5,5.2|
5,6,0.39|
5,7,7.4|
6,0,8.3|
6,1,2.4|
6,2,7|
6,3,8.6|
6,4,9.6|
6,5,2.8|
6,6,8.5|
6,7,8.8|
7,0,4.9|
7,1,7.3|
7,2,1.4|
7,3,5.8|
7,4,1.4|
7,5,4.3|
7,6,2.2|
7,7,4.4|
];
constraint_x3_y3=[
0,0,6.9|
0,1,7|
0,2,2.7|
0,3,5.6|
0,4,6.9|
0,5,1.9|
0,6,6.8|
0,7,2.5|
1,0,4.5|
1,1,7.9|
1,2,9.8|
1,3,8.9|
1,4,5.2|
1,5,8.2|
1,6,5.4|
1,7,7.2|
2,0,5.6|
2,1,0.91|
2,2,4.9|
2,3,1.7|
2,4,4.4|
2,5,9.4|
2,6,4.1|
2,7,6.5|
3,0,3.8|
3,1,0.48|
3,2,9.9|
3,3,9.3|
3,4,4.6|
3,5,4.7|
3,6,8.2|
3,7,9.4|
4,0,2.3|
4,1,6.7|
4,2,9.9|
4,3,6.6|
4,4,0.93|
4,5,9.6|
4,6,3.4|
4,7,3.9|
5,0,7.4|
5,1,8|
5,2,1.9|
5,3,7.5|
5,4,7.4|
5,5,5.6|
5,6,2.6|
5,7,7.9|
6,0,7.1|
6,1,8.6|
6,2,9.2|
6,3,2.4|
6,4,5.4|
6,5,6.8|
6,6,1.5|
6,7,2.3|
7,0,3|
7,1,5.7|
7,2,8.7|
7,3,8.8|
7,4,5.6|
7,5,1.5|
7,6,2.3|
7,7,0.58|
];
constraint_x4_y4=[
0,0,5.8|
0,1,0.7|
0,2,0.79|
0,3,2.5|
0,4,5.7|
0,5,8.4|
0,6,9.7|
0,7,4.7|
1,0,6.7|
1,1,9.3|
1,2,9.1|
1,3,9.4|
1,4,7.6|
1,5,3.7|
1,6,9.4|
1,7,1.2|
2,0,3.4|
2,1,4.1|
2,2,2.1|
2,3,0.13|
2,4,5.1|
2,5,6.4|
2,6,8.4|
2,7,6.4|
3,0,9.5|
3,1,0.27|
3,2,3.7|
3,3,3|
3,4,9.8|
3,5,4.1|
3,6,4.9|
3,7,7|
4,0,1.3|
4,1,1.7|
4,2,8.6|
4,3,6.4|
4,4,6.6|
4,5,1.3|
4,6,3.2|
4,7,3.8|
5,0,8.9|
5,1,3.2|
5,2,9.6|
5,3,5.5|
5,4,5.7|
5,5,3.6|
5,6,1.7|
5,7,4.9|
6,0,8|
6,1,9.3|
6,2,4.6|
6,3,5.3|
6,4,7.4|
6,5,0.49|
6,6,4.7|
6,7,4.9|
7,0,9.9|
7,1,1.9|
7,2,6.7|
7,3,2.3|
7,4,4|
7,5,1.1|
7,6,2.1|
7,7,6.6|
];
constraint_x5_y5=[
0,0,3.9|
0,1,6.3|
0,2,9.3|
0,3,1.3|
0,4,9.8|
0,5,5|
0,6,0.93|
0,7,9.6|
1,0,6.6|
1,1,0.82|
1,2,7.1|
1,3,2.4|
1,4,2.5|
1,5,7.2|
1,6,8|
1,7,0.81|
2,0,1.7|
2,1,4.1|
2,2,7.8|
2,3,3.2|
2,4,6.9|
2,5,0.43|
2,6,4.2|
2,7,3.6|
3,0,5.8|
3,1,2.5|
3,2,8.3|
3,3,1.2|
3,4,9|
3,5,7.3|
3,6,9.5|
3,7,8.7|
4,0,0.62|
4,1,3|
4,2,8.9|
4,3,2|
4,4,4.8|
4,5,3.1|
4,6,9|
4,7,1.8|
5,0,7.9|
5,1,2.1|
5,2,7.3|
5,3,4.4|
5,4,3.8|
5,5,9.6|
5,6,8.8|
5,7,4.4|
6,0,6.6|
6,1,3.4|
6,2,0.35|
6,3,1.3|
6,4,6.3|
6,5,0.15|
6,6,0.98|
6,7,7.3|
7,0,5.3|
7,1,7|
7,2,4.7|
7,3,0.83|
7,4,9|
7,5,9.7|
7,6,8.8|
7,7,2.4|
];
constraint_x6_y6=[
0,0,0.83|
0,1,3.1|
0,2,4.1|
0,3,7.1|
0,4,4|
0,5,2.3|
0,6,6.3|
0,7,5.1|
1,0,5.7|
1,1,8.4|
1,2,3.7|
1,3,0.75|
1,4,4.2|
1,5,3.6|
1,6,4.4|
1,7,2.6|
2,0,6.2|
2,1,1.4|
2,2,1.3|
2,3,9.1|
2,4,4.1|
2,5,1.7|
2,6,6.6|
2,7,3.6|
3,0,3.1|
3,1,4.8|
3,2,5.5|
3,3,7.8|
3,4,1.9|
3,5,5.6|
3,6,3.7|
3,7,7.4|
4,0,3.5|
4,1,1.6|
4,2,0.45|
4,3,0.61|
4,4,2.6|
4,5,6.7|
4,6,7.6|
4,7,4.4|
5,0,10|
5,1,6.3|
5,2,3.9|
5,3,2.5|
5,4,7.5|
5,5,1.6|
5,6,5.2|
5,7,7.9|
6,0,7.7|
6,1,6.3|
6,2,4.7|
6,3,6.2|
6,4,9.3|
6,5,6.7|
6,6,4.2|
6,7,2.7|
7,0,8.8|
7,1,3.8|
7,2,0.73|
7,3,4.4|
7,4,7.6|
7,5,3.7|
7,6,3.6|
7,7,9.9|
];
constraint_x7_y7=[
0,0,6.7|
0,1,4.1|
0,2,2.5|
0,3,1.8|
0,4,1.3|
0,5,9.8|
0,6,1.6|
0,7,3.2|
1,0,5.5|
1,1,7.1|
1,2,9.7|
1,3,2.6|
1,4,4.6|
1,5,4.7|
1,6,2.2|
1,7,1.2|
2,0,3.9|
2,1,4.7|
2,2,5|
2,3,7.3|
2,4,1.9|
2,5,6.9|
2,6,4.5|
2,7,7.3|
3,0,2.7|
3,1,3.6|
3,2,2.9|
3,3,7.1|
3,4,7.4|
3,5,0.44|
3,6,7.9|
3,7,8.7|
4,0,2|
4,1,5.3|
4,2,4.4|
4,3,1.9|
4,4,5.3|
4,5,0.046|
4,6,3.7|
4,7,2.7|
5,0,2.1|
5,1,3.8|
5,2,0.38|
5,3,10|
5,4,5.4|
5,5,6.4|
5,6,5|
5,7,4.6|
6,0,7.1|
6,1,0.97|
6,2,0.89|
6,3,9.8|
6,4,5.2|
6,5,1.5|
6,6,3.6|
6,7,9.9|
7,0,2.2|
7,1,4.5|
7,2,3.2|
7,3,4.9|
7,4,9.1|
7,5,0.49|
7,6,3.3|
7,7,0.047|
];
constraint_x8_y8=[
0,0,3.5|
0,1,1.8|
0,2,7|
0,3,4.1|
0,4,2.5|
0,5,8.7|
0,6,10|
0,7,3.6|
1,0,7.6|
1,1,9.1|
1,2,7.8|
1,3,6.6|
1,4,4.7|
1,5,8.8|
1,6,7.5|
1,7,2.5|
2,0,0.061|
2,1,7.4|
2,2,7.4|
2,3,9.4|
2,4,9.6|
2,5,9.5|
2,6,7.1|
2,7,7.7|
3,0,5.6|
3,1,0.18|
3,2,5.2|
3,3,5.7|
3,4,7.9|
3,5,6.7|
3,6,8.8|
3,7,8.4|
4,0,0.59|
4,1,1.6|
4,2,2.7|
4,3,9.2|
4,4,9|
4,5,7.3|
4,6,5.8|
4,7,2.2|
5,0,7.5|
5,1,2.8|
5,2,3|
5,3,3.3|
5,4,4|
5,5,6|
5,6,4.1|
5,7,6.8|
6,0,7.9|
6,1,0.7|
6,2,0.047|
6,3,9.8|
6,4,7.6|
6,5,7.3|
6,6,2.6|
6,7,1.8|
7,0,9.6|
7,1,3.3|
7,2,4.9|
7,3,6.1|
7,4,3.8|
7,5,2.4|
7,6,0.28|
7,7,4.8|
];
constraint_x9_y9=[
0,0,4.5|
0,1,3.4|
0,2,4.4|
0,3,7.1|
0,4,5.9|
0,5,5.7|
0,6,6.7|
0,7,7.5|
1,0,0.96|
1,1,4.6|
1,2,5.3|
1,3,0.94|
1,4,9|
1,5,5.8|
1,6,1.1|
1,7,5.3|
2,0,8.7|
2,1,10|
2,2,0.26|
2,3,3.6|
2,4,7.9|
2,5,8.6|
2,6,2.2|
2,7,6.8|
3,0,6.9|
3,1,4|
3,2,6.7|
3,3,3.1|
3,4,1.2|
3,5,7.2|
3,6,9.2|
3,7,7|
4,0,4.9|
4,1,3|
4,2,0.051|
4,3,6.8|
4,4,4.9|
4,5,2.8|
4,6,6.7|
4,7,9.1|
5,0,2.4|
5,1,7.5|
5,2,8.4|
5,3,1.8|
5,4,7.3|
5,5,6.1|
5,6,3.3|
5,7,4|
6,0,4.1|
6,1,2.7|
6,2,6.5|
6,3,0.92|
6,4,0.79|
6,5,5.4|
6,6,3.5|
6,7,4.4|
7,0,5.9|
7,1,8.6|
7,2,9|
7,3,0.91|
7,4,0.34|
7,5,2.6|
7,6,3|
7,7,10|
];
initial_distribution_y1=[0.11,0.022,0.011,0.15,0.13,0.23,0.17,0.17];
initial_distribution_y2=[0.0082,0.13,0.12,0.14,0.18,0.015,0.2,0.2];
initial_distribution_y3=[0.19,0.13,0.1,0.14,0.13,0.0052,0.13,0.17];
initial_distribution_y4=[0.091,0.19,0.024,0.27,0.022,0.15,0.19,0.062];
initial_distribution_y5=[0.2,0.23,0.026,0.068,0.14,0.098,0.23,0.0062];
initial_distribution_y6=[0.087,0.2,0.0087,0.15,0.14,0.2,0.072,0.15];
initial_distribution_y7=[0.21,0.029,0.2,0.1,0.076,0.13,0.095,0.16];
initial_distribution_y8=[0.028,0.12,0.3,0.04,0.12,0.11,0.037,0.25];
initial_distribution_y9=[0.18,0.16,0.14,0.17,0.045,0.11,0.17,0.027];
transition_y1=[
0.22,0.042,0.27,0.029,0.15,0.065,0.13,0.093|
0.2,0.083,0.065,0.17,0.041,0.21,0.0049,0.23|
0.064,0.0095,0.034,0.31,0.0078,0.15,0.29,0.13|
0.15,0.1,0.053,0.14,0.031,0.15,0.23,0.14|
0.13,0.017,0.12,0.14,0.18,0.14,0.095,0.17|
0.1,0.096,0.24,0.044,0.13,0.19,0.08,0.12|
0.065,0.23,0.0085,0.2,0.2,0.1,0.14,0.043|
0.2,0.15,0.087,0.11,0.026,0.15,0.23,0.04|
];
transition_y2=[
0.1,0.18,0.094,0.13,0.037,0.2,0.19,0.072|
0.11,0.083,0.052,0.16,0.17,0.14,0.11,0.18|
0.1,0.27,0.0073,0.024,0.3,0.098,0.018,0.18|
0.22,0.2,0.18,0.13,0.063,0.028,0.0085,0.17|
0.039,0.22,0.097,0.18,0.17,0.11,0.089,0.1|
0.0092,0.057,0.01,0.1,0.17,0.33,0.017,0.31|
0.07,0.16,0.052,0.066,0.096,0.088,0.24,0.23|
0.23,0.056,0.061,0.2,0.017,0.18,0.04,0.22|
];
transition_y3=[
0.055,0.074,0.062,0.048,0.15,0.16,0.26,0.2|
0.054,0.1,0.036,0.29,0.23,0.15,0.076,0.065|
0.2,0.16,0.051,0.18,0.055,0.14,0.065,0.15|
0.06,0.2,0.068,0.037,0.21,0.031,0.16,0.23|
0.14,0.16,0.15,0.011,0.074,0.054,0.2,0.21|
0.088,0.16,0.17,0.099,0.16,0.067,0.11,0.15|
0.12,0.13,0.21,0.041,0.077,0.18,0.076,0.17|
0.069,0.23,0.073,0.19,0.039,0.034,0.17,0.19|
];
transition_y4=[
0.14,0.085,0.073,0.24,0.15,0.034,0.074,0.21|
0.075,0.16,0.032,0.13,0.16,0.22,0.091,0.13|
0.23,0.15,0.12,0.15,0.023,0.16,0.03,0.14|
0.079,0.063,0.12,0.17,0.2,0.0078,0.098,0.26|
0.17,0.12,0.054,0.02,0.17,0.2,0.2,0.074|
0.0038,0.074,0.0051,0.22,0.17,0.15,0.22,0.16|
0.25,0.077,0.064,0.21,0.11,0.11,0.13,0.049|
0.012,0.22,0.22,0.045,0.13,0.071,0.058,0.24|
];
transition_y5=[
0.029,0.051,0.24,0.093,0.094,0.31,0.013,0.17|
0.15,0.19,0.2,0.028,0.096,0.12,0.12,0.09|
0.12,0.12,0.0077,0.2,0.13,0.021,0.18,0.23|
0.2,0.083,0.14,0.086,0.064,0.17,0.008,0.24|
0.26,0.2,0.054,0.097,0.07,0.14,0.097,0.083|
0.095,0.0074,0.13,0.16,0.09,0.045,0.25,0.22|
0.23,0.022,0.16,0.17,0.046,0.089,0.15,0.15|
0.18,0.027,0.2,0.14,0.097,0.19,0.05,0.11|
];
transition_y6=[
0.091,0.063,0.12,0.028,0.11,0.21,0.2,0.19|
0.0021,0.15,0.15,0.17,0.17,0.037,0.17,0.16|
0.062,0.15,0.1,0.12,0.16,0.16,0.081,0.17|
0.028,0.12,0.16,0.1,0.19,0.21,0.05,0.15|
0.074,0.21,0.0087,0.15,0.17,0.13,0.16,0.098|
0.19,0.2,0.15,0.068,0.19,0.052,0.15,0.0043|
0.24,0.028,0.2,0.093,0.033,0.11,0.11,0.18|
0.27,0.21,0.051,0.038,0.13,0.12,0.069,0.13|
];
transition_y7=[
0.16,0.13,0.16,0.14,0.16,0.054,0.14,0.071|
0.017,0.062,0.072,0.11,0.26,0.16,0.14,0.17|
0.26,0.078,0.08,0.12,0.067,0.17,0.092,0.13|
0.19,0.073,0.1,0.19,0.047,0.12,0.13,0.16|
0.24,0.055,0.12,0.045,0.18,0.24,0.12,0.011|
0.24,0.27,0.056,0.13,0.11,0.028,0.015,0.16|
0.11,0.031,0.044,0.041,0.23,0.091,0.37,0.079|
0.053,0.11,0.0073,0.095,0.089,0.25,0.24,0.14|
];
transition_y8=[
0.041,0.097,0.069,0.22,0.21,0.09,0.068,0.2|
0.062,0.17,0.11,0.11,0.072,0.1,0.19,0.19|
0.38,0.11,0.073,0.025,0.21,0.016,0.028,0.16|
0.17,0.078,0.2,0.12,0.084,0.2,0.029,0.11|
0.033,0.069,0.096,0.19,0.2,0.2,0.19,0.016|
0.095,0.24,0.13,0.19,0.07,0.1,0.043,0.13|
0.13,0.19,0.2,0.0076,0.043,0.11,0.12,0.2|
0.065,0.023,0.11,0.14,0.17,0.21,0.099,0.18|
];
transition_y9=[
0.011,0.15,0.27,0.096,0.16,0.012,0.15,0.15|
0.31,0.057,0.14,0.032,0.2,0.016,0.095,0.14|
0.0082,0.17,0.21,0.18,0.049,0.14,0.073,0.16|
0.11,0.12,0.098,0.16,0.028,0.17,0.22,0.087|
0.13,0.12,0.11,0.17,0.11,0.13,0.078,0.14|
0.19,0.076,0.15,0.1,0.083,0.1,0.16,0.13|
0.034,0.091,0.22,0.17,0.062,0.35,0.036,0.032|
0.22,0.14,0.0071,0.14,0.087,0.24,0.016,0.16|
];
